mixintcount/benchmarks/random_v2l/3_3_794.smt2
(set-logic QF_LIA)
(set-info :ran/ran2.smt2)
(set-info :smt-lib-version 2.0)
(declare-fun x1 () Int)
(declare-fun x2 () Int)
(declare-fun x3 () Int)
(assert (<= (+ (* (- 6) x1) (* 4 x2) (* (- 1) x3) ) 511))
(assert (<= (+ (* (- 1) x1) (* 2 x2) (* 7 x3) ) 174))
(assert (<= (+ (* (- 3) x1) (* (- 1) x2) (* 1 x3) ) 82))
(assert (<= (+ (* 3 x1) (* 7 x2) (* 7 x3) ) (- 412)))
(assert (<= (+ (* 8 x1) (* 7 x2) (* 5 x3) ) 17))
(assert (<= (+ (* (- 5) x1) (* 4 x2) (* 7 x3) ) 723))
(assert (<= (+ (* 1 x1) (* 0 x2) (* 0 x3) ) 794))
(assert (<= (+ (* (- 1) x1) (* 0 x2) (* 0 x3) ) 794))
(assert (<= (+ (* 0 x1) (* 1 x2) (* 0 x3) ) 794))
(assert (<= (+ (* 0 x1) (* (- 1) x2) (* 0 x3) ) 794))
(assert (<= (+ (* 0 x1) (* 0 x2) (* 1 x3) ) 794))
(assert (<= (+ (* 0 x1) (* 0 x2) (* (- 1) x3) ) 794))
