mixintcount/benchmarks/random_v2l/3_3_794.in
12 5
#	x1	x2	x3;		0 = Real; 1 = Integer
	1	1	1
1	-6	4	-1	511
1	-1	2	7	174
1	-3	-1	1	82
1	3	7	7	-412
1	8	7	5	17
1	-5	4	7	723
1	1	0	0	794
1	-1	0	0	794
1	0	1	0	794
1	0	-1	0	794
1	0	0	1	794
1	0	0	-1	794
